60
1 0 2
2 0 3
2 1 2
4 1 1
4 3 4
5 3 3
5 4 1
6 0 4
6 1 4
6 2 1
6 4 1
6 5 4
7 0 3
7 1 2
8 2 2
8 4 1
9 1 4
9 2 3
9 5 2
9 6 3
9 7 4
9 8 1
10 0 4
10 3 4
10 5 3
10 6 1
10 8 4
10 9 3
11 0 4
11 5 3
11 7 3
11 8 2
11 10 4
12 1 3
12 3 4
12 5 4
12 9 4
13 6 1
13 8 1
14 1 2
14 3 1
14 5 3
14 6 1
14 7 2
14 10 1
14 11 2
15 0 1
15 4 3
15 6 3
15 8 3
15 9 4
16 5 2
16 6 1
16 7 4
16 8 3
16 9 4
16 10 2
16 11 3
16 13 2
16 15 4
17 0 4
17 1 4
17 2 4
17 3 1
17 4 1
17 5 1
17 6 3
17 7 1
17 8 2
17 9 4
17 10 4
17 11 4
17 12 2
17 13 2
17 14 3
17 15 2
17 16 2
18 1 2
18 3 3
18 4 3
18 10 2
18 12 4
18 15 3
18 16 2
19 0 4
19 1 3
19 2 1
19 5 2
19 8 4
19 10 4
19 13 1
19 14 1
19 15 2
19 17 2
20 2 4
20 3 1
20 6 3
20 7 1
20 9 1
20 13 3
20 15 1
20 16 4
20 17 1
21 2 1
21 3 4
21 4 3
21 6 2
21 12 3
21 14 1
21 17 4
21 18 4
21 19 4
22 0 3
22 1 1
22 2 3
22 3 4
22 9 1
22 12 4
22 15 4
22 18 2
22 19 2
22 21 4
23 0 4
23 3 3
23 4 4
23 6 4
23 7 2
23 9 2
23 12 2
23 17 4
23 18 4
24 1 3
24 2 3
24 8 1
24 9 4
24 10 3
24 12 1
24 14 4
24 15 2
24 17 4
24 18 2
24 22 1
24 23 3
25 1 2
25 2 3
25 3 4
25 9 4
25 10 4
25 11 1
25 13 4
25 14 2
25 15 4
25 17 4
25 19 1
25 20 2
25 21 2
25 24 4
26 1 1
26 2 3
26 9 4
26 10 4
26 13 2
26 14 2
26 19 2
26 21 3
27 2 4
27 8 2
27 9 1
27 10 4
27 12 2
27 13 2
27 17 3
27 21 2
27 23 1
27 24 1
27 25 1
27 26 1
28 1 3
28 5 3
28 6 4
28 8 3
28 9 2
28 10 2
28 12 2
28 13 1
28 15 2
28 17 3
28 18 3
28 22 4
28 24 3
28 25 4
29 0 1
29 1 2
29 3 4
29 5 4
29 6 4
29 7 2
29 9 1
29 11 4
29 12 2
29 13 1
29 15 3
29 16 4
29 18 4
29 22 1
29 27 3
29 28 2
30 0 1
30 2 3
30 3 4
30 4 2
30 5 1
30 9 4
30 11 2
30 13 4
30 14 3
30 17 3
30 22 2
30 23 2
30 28 3
30 29 1
31 0 1
31 1 4
31 2 3
31 3 4
31 4 3
31 6 2
31 9 3
31 12 2
31 14 1
31 17 2
31 20 1
31 24 1
31 25 2
31 26 2
31 27 4
31 30 4
32 4 1
32 5 3
32 10 4
32 11 3
32 14 3
32 16 1
32 18 4
32 21 1
32 22 4
32 23 3
32 25 2
32 30 3
33 0 2
33 1 1
33 2 3
33 3 4
33 4 2
33 6 4
33 7 2
33 8 1
33 10 4
33 13 2
33 14 1
33 15 4
33 16 3
33 17 3
33 18 3
33 19 2
33 21 4
33 22 3
33 23 2
33 24 4
33 26 4
33 29 3
33 32 1
34 1 2
34 2 1
34 3 1
34 4 1
34 6 3
34 8 3
34 10 3
34 14 2
34 16 2
34 17 3
34 18 2
34 19 4
34 28 2
34 29 1
34 30 3
34 31 4
35 1 3
35 3 4
35 4 4
35 5 2
35 6 3
35 7 1
35 8 1
35 12 4
35 14 2
35 15 4
35 16 1
35 19 1
35 20 2
35 21 4
35 23 2
35 24 4
35 26 1
35 29 1
35 31 3
35 32 4
35 33 1
36 1 1
36 3 2
36 4 4
36 5 4
36 8 3
36 9 2
36 12 3
36 13 2
36 15 4
36 17 3
36 19 2
36 20 2
36 21 3
36 22 2
36 25 4
36 28 4
36 31 2
36 33 3
36 34 1
37 1 3
37 2 1
37 3 4
37 5 1
37 7 3
37 8 4
37 9 1
37 10 1
37 11 2
37 12 4
37 16 3
37 19 2
37 20 3
37 21 4
37 22 4
37 23 4
37 24 3
37 25 2
37 27 4
37 30 2
37 33 2
37 34 2
37 35 2
38 0 2
38 1 3
38 2 4
38 4 2
38 6 3
38 8 2
38 12 4
38 16 1
38 18 2
38 20 4
38 21 2
38 23 4
38 25 1
38 26 3
38 29 3
38 32 1
38 35 1
38 37 1
39 0 1
39 2 1
39 7 2
39 8 3
39 9 1
39 10 1
39 11 1
39 13 1
39 16 2
39 17 3
39 18 1
39 21 1
39 24 1
39 25 3
39 28 4
39 29 1
39 30 4
39 34 2
39 35 3
39 36 1
39 37 3
39 38 1
40 1 2
40 2 1
40 3 3
40 6 2
40 7 2
40 8 1
40 9 4
40 13 1
40 14 3
40 17 1
40 20 2
40 22 4
40 24 2
40 25 3
40 27 4
40 28 1
40 33 2
41 5 3
41 6 3
41 7 4
41 8 2
41 9 4
41 10 2
41 12 4
41 13 2
41 14 3
41 20 2
41 21 1
41 24 2
41 25 2
41 30 4
41 31 2
41 33 4
41 34 4
41 35 2
41 37 3
41 38 3
41 39 3
41 40 2
42 4 4
42 6 2
42 7 3
42 9 1
42 11 3
42 12 4
42 18 2
42 20 4
42 21 4
42 22 3
42 24 3
42 27 4
42 28 1
42 29 3
42 31 2
42 32 3
42 38 3
42 39 3
43 2 4
43 3 3
43 4 3
43 6 4
43 9 4
43 12 4
43 16 3
43 20 1
43 21 1
43 22 1
43 25 2
43 26 4
43 27 1
43 31 1
43 32 2
43 33 2
43 34 3
43 35 4
43 36 3
43 41 4
43 42 1
44 6 3
44 11 2
44 12 3
44 13 3
44 15 4
44 20 3
44 22 3
44 23 1
44 31 4
44 34 1
44 38 4
44 39 3
44 41 4
44 43 1
45 0 4
45 3 3
45 4 4
45 5 1
45 8 1
45 10 1
45 12 3
45 13 4
45 14 3
45 17 3
45 19 3
45 21 1
45 22 3
45 24 4
45 27 4
45 29 3
45 32 4
45 35 3
45 36 1
45 38 1
45 39 4
45 42 4
45 43 3
45 44 4
46 1 4
46 2 1
46 7 2
46 8 2
46 11 2
46 12 2
46 17 2
46 18 4
46 24 2
46 25 2
46 26 4
46 27 3
46 29 3
46 30 4
46 31 3
46 36 4
46 37 2
46 43 4
46 44 4
47 0 1
47 6 1
47 7 1
47 8 1
47 14 2
47 22 2
47 23 2
47 24 1
47 25 3
47 27 3
47 30 2
47 32 2
47 35 3
47 37 1
47 40 3
47 41 1
47 44 4
48 2 2
48 4 4
48 7 1
48 8 1
48 10 2
48 11 4
48 12 2
48 13 4
48 15 2
48 17 2
48 18 4
48 22 1
48 24 3
48 25 1
48 27 3
48 29 3
48 32 3
48 33 3
48 34 4
48 35 2
48 37 2
48 38 3
48 39 4
48 40 1
48 42 2
48 43 3
48 46 2
48 47 2
49 0 3
49 1 4
49 3 4
49 5 3
49 6 1
49 7 1
49 10 1
49 13 1
49 14 1
49 15 3
49 17 2
49 18 3
49 22 3
49 25 4
49 30 3
49 32 3
49 33 4
49 35 4
49 36 2
49 37 2
49 39 2
49 42 2
49 45 3
50 0 2
50 3 4
50 4 4
50 5 4
50 6 4
50 9 1
50 13 4
50 16 4
50 17 4
50 18 3
50 19 1
50 20 2
50 26 2
50 27 1
50 28 1
50 30 2
50 31 1
50 34 1
50 35 4
50 36 3
50 37 3
50 41 4
50 46 1
50 47 1
50 48 2
50 49 4
51 0 2
51 2 4
51 4 2
51 5 4
51 7 1
51 8 3
51 10 1
51 11 4
51 12 4
51 13 4
51 14 4
51 17 3
51 22 1
51 24 1
51 25 1
51 26 1
51 28 1
51 30 2
51 31 3
51 36 2
51 37 2
51 39 1
51 42 4
51 43 1
51 44 4
51 46 1
51 49 4
51 50 4
52 0 1
52 11 1
52 13 1
52 14 3
52 15 4
52 19 1
52 22 3
52 24 1
52 25 4
52 26 3
52 37 1
52 38 1
52 40 3
52 44 4
52 45 1
52 47 3
52 49 1
53 2 2
53 4 1
53 6 3
53 8 4
53 9 4
53 10 1
53 12 3
53 13 3
53 15 1
53 16 3
53 17 1
53 19 3
53 20 2
53 21 4
53 22 2
53 25 4
53 29 1
53 31 2
53 32 3
53 34 1
53 35 2
53 36 2
53 38 2
53 39 3
53 43 4
53 45 4
53 50 1
53 51 4
53 52 4
54 0 2
54 1 3
54 5 2
54 7 1
54 10 1
54 13 2
54 16 3
54 18 2
54 19 3
54 21 2
54 22 3
54 24 3
54 25 2
54 26 2
54 27 2
54 28 1
54 30 1
54 31 3
54 34 1
54 36 4
54 39 4
54 42 2
54 44 3
54 45 3
54 47 2
54 48 1
54 50 3
54 52 1
55 0 4
55 2 2
55 3 1
55 5 2
55 6 1
55 8 1
55 9 3
55 11 3
55 12 2
55 16 3
55 17 3
55 18 1
55 21 2
55 22 3
55 24 1
55 25 1
55 26 3
55 27 3
55 29 1
55 32 2
55 33 2
55 41 3
55 44 1
55 45 4
55 50 2
55 52 4
55 53 1
56 2 4
56 5 3
56 7 3
56 8 3
56 9 3
56 10 2
56 11 2
56 14 1
56 15 2
56 16 3
56 17 4
56 18 3
56 19 3
56 21 1
56 22 3
56 23 3
56 26 4
56 30 2
56 33 4
56 34 3
56 37 4
56 41 3
56 43 3
56 46 4
56 48 4
56 49 2
56 51 1
56 55 4
57 1 4
57 3 1
57 5 2
57 9 3
57 12 3
57 13 4
57 15 2
57 18 3
57 19 3
57 25 4
57 27 3
57 29 2
57 30 1
57 32 1
57 35 3
57 37 2
57 40 4
57 41 4
57 43 1
57 44 2
57 46 4
57 47 1
57 49 2
57 50 2
57 52 1
57 56 1
58 3 4
58 6 2
58 9 2
58 11 2
58 12 3
58 15 1
58 16 2
58 17 1
58 18 2
58 21 1
58 22 3
58 24 4
58 26 3
58 27 1
58 29 2
58 32 2
58 34 2
58 36 1
58 39 3
58 40 1
58 41 2
58 42 2
58 43 1
58 44 2
58 46 3
58 50 2
58 51 2
58 53 3
58 54 1
58 55 3
58 56 1
58 57 2
59 1 2
59 3 3
59 9 2
59 11 1
59 12 1
59 13 1
59 15 2
59 17 3
59 18 2
59 19 1
59 28 4
59 30 3
59 32 3
59 37 1
59 38 3
59 42 4
59 44 1
59 46 2
59 47 4
59 49 4
59 50 4
59 52 3
59 55 1
